9693 8429 496 494 493 492 491 490 487 486 483 481 471 470 468 465 460 451 450 446 445 436 434 429 428 424 422 417 413 410 406 405 401 400 398 396 393 392 391 388 387 379 378 377 375 373 371 365 364 361 353 351 349 348 342 341 340 338 337 336 333 332 331 330 329 319 317 312 311 310 307 306 303 298 297 296 290 288 287 286 282 280 278 275 272 269 268 265 264 263 261 260 259 258 256 252 251 250 249 248 246 245 241 238 235 234 229 225 221 213 210 206 201 200 198 197 196 192 188 187 185 182 178 176 175 174 168 166 161 159 157 156 155 150 149 146 145 142 140 136 135 124 123 120 117 114 113 111 110 107 104 103 101 99 96 92 91 88 87 85 83 79 78 74 70 69 68 67 66 64 61 59 58 57 52 51 49 45 42 41 39 35 34 33 29 26 25 24 22 21 20 19 16 15 14 11 5 3 